(declare-const |main__cp':152:170:175:604:612| Int)
(declare-const |phi_main____CPAchecker_TMP_1:256:257:605:613| Int)
(declare-const |__VERIFIER_assert__cond___16':155:168:173:602:610| Int)
(declare-const havoc Int)
(declare-const |havoc:9:61:176:607| Int)
(declare-const __VERIFIER_assert__cond___15 Int)
(declare-const __VERIFIER_assert__cond___16 Int)
(declare-const main____CPAchecker_TMP_1 Int)
(declare-const |havoc:1| Int)
(declare-const |K:165:166:171:600:608| Int)
(declare-const |havoc:2| Int)
(declare-const |main____CPAchecker_TMP_1':153:167:172:601:609| Int)
(declare-const |__VERIFIER_assert__cond___15':154:169:174:603:611| Int)
(declare-const |havoc:12:62:258:606:614| Int)
(assert (and (<= (+ havoc -1000000) 0) (<= (+ (- havoc) -1000000) 0)
               (<= (+ |havoc:1| -1000000) 0)
               (<= (+ (- |havoc:1|) -1000000) 0)
               (<= (+ |havoc:2| -1000000) 0)
               (<= (+ (- |havoc:2|) -1000000) 0) (< (- havoc) 0)
               (< (- |havoc:1|) 0) (<= (- |havoc:2|) 0) (not (= |havoc:2| 0))
               (<= (+ |havoc:2| (- havoc) 1) 0)
               (not (= (ite (< (+ |havoc:2| (- havoc) -1) 0) 1 0) 0))
               (not (= (ite (<= (+ (- |havoc:2|) 1) 0) 1 0) 0))
               (not (= |havoc:9:61:176:607| 0))
               (not (= (ite (< (+ |havoc:2| (- havoc)) 0) 1 0) 0))
               (not (= (ite (<= (- |havoc:2|) 0) 1 0) 0))
               (or (not (and (<= (- |K:165:166:171:600:608|) 0)
                               (<= |K:165:166:171:600:608| 0)))
                     (= (+ (- main____CPAchecker_TMP_1)
                             |main____CPAchecker_TMP_1':153:167:172:601:609|) 0))
               (or (not (<= (+ (- |K:165:166:171:600:608|) 1) 0))
                     (= |main____CPAchecker_TMP_1':153:167:172:601:609| 0))
               (or (not (and (<= (- |K:165:166:171:600:608|) 0)
                               (<= |K:165:166:171:600:608| 0)))
                     (= (+ (- __VERIFIER_assert__cond___16)
                             |__VERIFIER_assert__cond___16':155:168:173:602:610|) 0))
               (or (not (<= (+ (- |K:165:166:171:600:608|) 1) 0))
                     (= (+ |__VERIFIER_assert__cond___16':155:168:173:602:610|
                             -1) 0))
               (or (not (and (<= (- |K:165:166:171:600:608|) 0)
                               (<= |K:165:166:171:600:608| 0)))
                     (= (+ (- __VERIFIER_assert__cond___15)
                             |__VERIFIER_assert__cond___15':154:169:174:603:611|) 0))
               (or (not (<= (+ (- |K:165:166:171:600:608|) 1) 0))
                     (= (+ |__VERIFIER_assert__cond___15':154:169:174:603:611|
                             -1) 0))
               (or (not (<= (- |K:165:166:171:600:608|) 0))
                     (= (+ |main__cp':152:170:175:604:612|
                             (- |K:165:166:171:600:608|) (- |havoc:2|)) 0))
               (or (and (= |K:165:166:171:600:608| 0)
                          (= (+ __VERIFIER_assert__cond___16
                                  (- |__VERIFIER_assert__cond___16':155:168:173:602:610|)) 0)
                          (= (+ __VERIFIER_assert__cond___15
                                  (- |__VERIFIER_assert__cond___15':154:169:174:603:611|)) 0)
                          (= (+ main____CPAchecker_TMP_1
                                  (- |main____CPAchecker_TMP_1':153:167:172:601:609|)) 0)
                          (= (+ (- |main__cp':152:170:175:604:612|) |havoc:2|) 0))
                     (and (<= (+ (- |K:165:166:171:600:608|) 1) 0)
                            (<= (+ |havoc:2| (- havoc) 2) 0)
                            (<= (+ (- |havoc:2|) 1) 0)
                            (= (+ |__VERIFIER_assert__cond___16':155:168:173:602:610|
                                    -1) 0)
                            (= (+ |__VERIFIER_assert__cond___15':154:169:174:603:611|
                                    -1) 0)
                            (= |main____CPAchecker_TMP_1':153:167:172:601:609| 0)
                            (<= (+ |main__cp':152:170:175:604:612| (- 
                                     havoc) 1) 0)
                            (<= (+ (- |main__cp':152:170:175:604:612|) 2) 0)))
               (<= (- |K:165:166:171:600:608|) 0) (< (- havoc) 0)
               (< (- |main__cp':152:170:175:604:612|) 0)
               (or (and (<= (+ (- |main__cp':152:170:175:604:612|) havoc -1) 0)
                          (<= (+ |main__cp':152:170:175:604:612| (- havoc) 1) 0)
                          (= (+ (- |phi_main____CPAchecker_TMP_1:256:257:605:613|)
                                  |main____CPAchecker_TMP_1':153:167:172:601:609|) 0))
                     (and (or (< (+ |main__cp':152:170:175:604:612| (- 
                                      havoc) 1) 0)
                                (< (+ (- |main__cp':152:170:175:604:612|)
                                        havoc -1) 0))
                            (not (= |havoc:12:62:258:606:614| 0))
                            (= (+ |havoc:12:62:258:606:614|
                                    (- |phi_main____CPAchecker_TMP_1:256:257:605:613|)) 0)))
               (not (= (ite (< (+ |main__cp':152:170:175:604:612| (- havoc)) 0)
                            1 0) 0))
               (not (= (ite (<= (- |main__cp':152:170:175:604:612|) 0) 1 0) 0))
               (not (= (+ |main__cp':152:170:175:604:612| (- havoc) 1) 0))
               (= (ite (< (+ |main__cp':152:170:175:604:612| (- havoc) 1) 0)
                       1 0) 0)))
(check-sat)
